DIMACS2
40 274 294 48 0 236 299 80 126 314 72 238 36 312 275 301 145 171 186 203 9 261 24 26 7 207 18 235 242 237 17 8 103 178 266 179 102 296 217 79 150
p edge 320 1308
e 0 22 6.0
e 0 134 47.0
e 0 133 37.0
e 0 294 25.0
e 0 126 37.0
e 0 235 7.0
e 1 194 1.0
e 1 0 29.0
e 1 109 1.0
e 1 208 1.0
e 2 127 1.0
e 2 184 1.0
e 2 108 1.0
e 2 20 1.0
e 3 20 1.0
e 3 32 2.0
e 3 238 14.0
e 3 249 1.0
e 4 97 1.0
e 4 140 1.0
e 4 151 1.0
e 4 265 1.0
e 5 116 2.0
e 5 258 2.0
e 5 61 2.0
e 5 255 1.0
e 6 174 1.0
e 6 25 1.0
e 6 312 37.0
e 6 219 1.0
e 7 307 6.0
e 7 266 24.0
e 7 272 11.0
e 7 245 46.0
e 7 72 24.0
e 7 301 49.0
e 7 178 34.0
e 8 278 30.0
e 8 146 48.0
e 8 18 11.0
e 8 303 36.0
e 9 139 18.0
e 9 171 23.0
e 9 97 29.0
e 9 54 6.0
e 9 145 44.0
e 9 0 17.0
e 9 102 21.0
e 10 189 1.0
e 10 293 1.0
e 10 275 11.0
e 10 249 1.0
e 11 56 1.0
e 11 264 2.0
e 11 304 2.0
e 11 163 1.0
e 12 247 1.0
e 12 29 2.0
e 12 142 1.0
e 12 115 1.0
e 13 132 1.0
e 13 121 2.0
e 13 112 1.0
e 13 85 2.0
e 14 281 1.0
e 14 73 1.0
e 14 254 1.0
e 14 42 1.0
e 15 83 2.0
e 15 55 1.0
e 15 1 1.0
e 15 279 1.0
e 16 264 1.0
e 16 262 1.0
e 16 82 1.0
e 16 55 1.0
e 17 129 10.0
e 17 73 46.0
e 17 269 48.0
e 17 184 22.0
e 18 69 49.0
e 18 225 24.0
e 18 278 40.0
e 18 96 37.0
e 18 126 1.0
e 19 289 1.0
e 19 228 2.0
e 19 55 1.0
e 19 160 1.0
e 20 102 39.0
e 20 40 1.0
e 20 81 2.0
e 20 252 2.0
e 21 304 1.0
e 21 101 2.0
e 21 294 25.0
e 21 190 2.0
e 22 195 1.0
e 22 249 2.0
e 22 208 1.0
e 22 18 24.0
e 23 295 2.0
e 23 158 1.0
e 23 105 1.0
e 23 302 1.0
e 24 268 10.0
e 24 163 7.0
e 24 90 3.0
e 24 249 24.0
e 25 279 1.0
e 25 160 1.0
e 25 230 1.0
e 25 65 2.0
e 26 187 7.0
e 26 275 48.0
e 26 237 20.0
e 26 209 42.0
e 27 143 1.0
e 27 43 1.0
e 27 65 1.0
e 27 78 1.0
e 28 90 1.0
e 28 185 1.0
e 28 281 2.0
e 28 145 16.0
e 29 56 1.0
e 29 42 1.0
e 29 265 1.0
e 29 224 1.0
e 30 242 3.0
e 30 42 1.0
e 30 77 1.0
e 30 24 44.0
e 31 206 2.0
e 31 19 2.0
e 31 247 1.0
e 31 133 2.0
e 32 49 1.0
e 32 205 1.0
e 32 153 1.0
e 32 199 1.0
e 33 177 2.0
e 33 8 26.0
e 33 189 1.0
e 33 29 2.0
e 34 250 1.0
e 34 77 1.0
e 34 14 1.0
e 34 133 1.0
e 35 299 39.0
e 35 176 1.0
e 35 177 1.0
e 35 170 2.0
e 36 56 22.0
e 36 38 41.0
e 36 309 48.0
e 36 15 18.0
e 36 72 36.0
e 37 244 1.0
e 37 45 1.0
e 37 195 1.0
e 37 169 1.0
e 38 174 1.0
e 38 104 1.0
e 38 307 1.0
e 38 95 1.0
e 39 244 3.0
e 39 296 34.0
e 39 250 1.0
e 39 253 1.0
e 40 203 42.0
e 40 41 1.0
e 40 114 1.0
e 40 15 1.0
e 41 290 1.0
e 41 109 1.0
e 41 149 2.0
e 41 20 2.0
e 42 32 1.0
e 42 26 18.0
e 42 125 2.0
e 42 108 1.0
e 43 139 1.0
e 43 9 33.0
e 43 41 1.0
e 44 37 1.0
e 44 117 1.0
e 44 152 2.0
e 44 296 39.0
e 45 235 26.0
e 45 266 11.0
e 45 224 1.0
e 45 70 1.0
e 46 277 2.0
e 46 138 1.0
e 46 263 1.0
e 47 199 1.0
e 47 285 1.0
e 47 55 2.0
e 47 261 3.0
e 48 38 3.0
e 48 122 3.0
e 48 86 33.0
e 48 103 16.0
e 48 274 8.0
e 48 203 31.0
e 49 181 2.0
e 49 109 1.0
e 49 221 1.0
e 49 198 1.0
e 50 97 1.0
e 50 37 1.0
e 50 107 1.0
e 50 101 2.0
e 51 37 1.0
e 51 63 1.0
e 51 214 1.0
e 51 276 1.0
e 52 46 1.0
e 52 205 2.0
e 52 264 1.0
e 52 160 1.0
e 53 205 1.0
e 53 115 1.0
e 53 70 2.0
e 53 301 45.0
e 54 261 1.0
e 54 29 2.0
e 54 80 3.0
e 54 288 1.0
e 55 13 2.0
e 55 54 1.0
e 55 289 1.0
e 55 138 1.0
e 56 168 1.0
e 56 295 1.0
e 56 267 1.0
e 56 201 2.0
e 57 138 1.0
e 57 228 2.0
e 57 79 32.0
e 57 245 3.0
e 58 75 1.0
e 58 165 1.0
e 58 48 48.0
e 58 215 1.0
e 59 52 1.0
e 59 66 1.0
e 59 238 35.0
e 59 202 1.0
e 60 220 1.0
e 60 6 1.0
e 60 137 1.0
e 60 269 1.0
e 61 83 1.0
e 61 300 1.0
e 61 72 38.0
e 62 255 2.0
e 62 194 1.0
e 62 183 1.0
e 62 86 2.0
e 63 248 1.0
e 63 175 2.0
e 63 273 1.0
e 63 140 1.0
e 64 32 2.0
e 64 205 2.0
e 64 209 1.0
e 64 186 33.0
e 65 142 1.0
e 65 188 2.0
e 65 60 2.0
e 65 294 30.0
e 66 273 1.0
e 66 156 1.0
e 66 111 1.0
e 66 285 1.0
e 67 181 1.0
e 67 261 33.0
e 67 251 1.0
e 67 249 1.0
e 68 198 2.0
e 68 141 1.0
e 68 112 3.0
e 68 7 16.0
e 69 309 1.0
e 69 269 1.0
e 69 103 7.0
e 70 0 48.0
e 70 118 1.0
e 70 117 1.0
e 70 170 1.0
e 71 33 1.0
e 71 213 1.0
e 71 149 1.0
e 71 81 1.0
e 72 34 6.0
e 72 190 15.0
e 72 33 28.0
e 72 109 5.0
e 73 102 35.0
e 73 72 33.0
e 73 36 5.0
e 73 64 1.0
e 74 212 1.0
e 74 6 1.0
e 74 242 41.0
e 74 79 48.0
e 75 81 1.0
e 75 240 1.0
e 75 220 1.0
e 75 151 1.0
e 76 135 1.0
e 76 168 1.0
e 76 5 1.0
e 76 106 1.0
e 77 309 1.0
e 77 269 1.0
e 77 158 1.0
e 77 209 1.0
e 78 261 32.0
e 78 118 1.0
e 78 135 1.0
e 78 128 2.0
e 79 97 4.0
e 79 152 13.0
e 79 38 24.0
e 79 260 30.0
e 80 290 28.0
e 80 172 10.0
e 80 229 10.0
e 80 287 38.0
e 80 103 34.0
e 80 126 25.0
e 80 266 23.0
e 80 314 10.0
e 81 120 1.0
e 81 149 1.0
e 81 141 1.0
e 81 138 1.0
e 82 174 2.0
e 82 192 1.0
e 82 312 33.0
e 82 184 1.0
e 83 155 1.0
e 83 76 1.0
e 83 158 1.0
e 83 128 1.0
e 84 200 1.0
e 84 117 1.0
e 84 251 1.0
e 84 91 2.0
e 85 255 1.0
e 85 314 18.0
e 85 6 1.0
e 85 124 1.0
e 86 101 1.0
e 86 225 1.0
e 86 14 1.0
e 86 286 2.0
e 87 228 2.0
e 87 33 1.0
e 87 113 1.0
e 87 247 1.0
e 88 76 1.0
e 88 86 2.0
e 88 119 2.0
e 88 118 1.0
e 89 290 1.0
e 89 299 7.0
e 89 104 2.0
e 89 255 1.0
e 90 92 1.0
e 90 44 2.0
e 90 118 1.0
e 90 87 1.0
e 91 296 13.0
e 91 47 2.0
e 91 291 1.0
e 91 254 1.0
e 92 12 2.0
e 92 253 1.0
e 92 50 1.0
e 92 137 1.0
e 93 21 2.0
e 93 41 1.0
e 93 284 1.0
e 93 132 1.0
e 94 289 1.0
e 94 299 8.0
e 94 57 1.0
e 94 43 1.0
e 95 213 1.0
e 95 287 1.0
e 95 40 2.0
e 95 181 1.0
e 96 156 1.0
e 96 228 2.0
e 96 225 1.0
e 96 10 2.0
e 97 223 1.0
e 97 116 3.0
e 97 251 1.0
e 97 206 1.0
e 98 86 2.0
e 98 261 4.0
e 98 48 42.0
e 98 32 1.0
e 99 299 21.0
e 99 193 1.0
e 99 42 2.0
e 99 160 1.0
e 100 75 1.0
e 100 161 2.0
e 100 59 1.0
e 100 193 2.0
e 101 51 2.0
e 101 39 1.0
e 101 304 1.0
e 101 124 1.0
e 102 147 28.0
e 102 31 36.0
e 102 176 4.0
e 103 294 40.0
e 103 79 39.0
e 103 300 11.0
e 103 256 32.0
e 103 266 49.0
e 104 171 23.0
e 104 162 1.0
e 104 307 1.0
e 104 237 27.0
e 105 20 2.0
e 105 207 28.0
e 105 141 1.0
e 105 168 2.0
e 106 241 1.0
e 106 152 2.0
e 106 115 1.0
e 106 86 1.0
e 107 86 2.0
e 107 183 1.0
e 107 120 1.0
e 107 93 2.0
e 108 156 1.0
e 108 31 2.0
e 108 78 1.0
e 108 142 1.0
e 109 154 1.0
e 109 36 14.0
e 109 225 2.0
e 109 77 1.0
e 110 315 1.0
e 110 229 1.0
e 110 73 1.0
e 110 225 2.0
e 111 6 1.0
e 111 174 1.0
e 111 214 1.0
e 111 251 1.0
e 112 75 1.0
e 112 191 1.0
e 112 143 1.0
e 112 141 1.0
e 113 122 1.0
e 113 8 25.0
e 113 35 1.0
e 113 226 1.0
e 114 13 2.0
e 114 203 43.0
e 114 52 2.0
e 114 180 1.0
e 115 293 1.0
e 115 81 1.0
e 115 152 2.0
e 115 195 1.0
e 116 314 42.0
e 116 77 2.0
e 116 94 1.0
e 116 76 1.0
e 117 107 1.0
e 117 257 1.0
e 117 303 2.0
e 117 110 1.0
e 118 108 1.0
e 118 39 2.0
e 118 74 1.0
e 118 62 2.0
e 119 158 1.0
e 119 197 2.0
e 119 196 2.0
e 119 40 1.0
e 120 152 2.0
e 120 254 1.0
e 120 140 1.0
e 120 213 2.0
e 121 262 1.0
e 121 298 2.0
e 121 8 17.0
e 121 124 1.0
e 122 185 2.0
e 122 208 1.0
e 122 156 2.0
e 122 255 1.0
e 123 240 1.0
e 123 131 1.0
e 123 48 37.0
e 123 78 2.0
e 124 35 1.0
e 124 139 1.0
e 124 60 1.0
e 124 2 1.0
e 125 203 5.0
e 125 82 1.0
e 125 32 1.0
e 125 84 1.0
e 126 266 47.0
e 126 153 21.0
e 126 57 32.0
e 126 300 15.0
e 126 171 8.0
e 127 217 25.0
e 127 103 21.0
e 127 66 1.0
e 127 17 13.0
e 128 177 1.0
e 128 283 1.0
e 128 201 2.0
e 128 70 1.0
e 129 57 1.0
e 129 144 1.0
e 129 93 1.0
e 129 284 2.0
e 130 74 1.0
e 130 82 1.0
e 130 292 1.0
e 130 115 1.0
e 131 312 9.0
e 131 71 1.0
e 131 315 1.0
e 131 216 1.0
e 132 136 2.0
e 132 79 34.0
e 132 38 1.0
e 132 222 1.0
e 133 217 1.0
e 133 40 1.0
e 133 153 2.0
e 133 61 1.0
e 134 213 2.0
e 134 219 2.0
e 134 216 1.0
e 134 148 1.0
e 135 204 1.0
e 135 54 1.0
e 135 98 1.0
e 135 274 8.0
e 136 239 1.0
e 136 229 1.0
e 136 235 37.0
e 136 33 1.0
e 137 203 45.0
e 137 307 1.0
e 137 287 1.0
e 137 193 1.0
e 138 66 1.0
e 138 50 1.0
e 138 187 2.0
e 138 107 1.0
e 139 104 1.0
e 139 117 2.0
e 139 259 1.0
e 139 41 2.0
e 140 214 1.0
e 140 143 1.0
e 140 141 1.0
e 140 285 1.0
e 141 219 1.0
e 141 166 2.0
e 141 190 1.0
e 141 184 1.0
e 142 252 1.0
e 142 24 22.0
e 142 140 1.0
e 142 171 14.0
e 143 123 1.0
e 143 78 1.0
e 143 155 1.0
e 143 18 17.0
e 144 199 1.0
e 144 90 1.0
e 144 213 2.0
e 144 313 1.0
e 145 304 6.0
e 145 29 30.0
e 145 101 1.0
e 145 110 47.0
e 146 30 1.0
e 146 127 1.0
e 146 23 2.0
e 146 238 13.0
e 147 256 1.0
e 147 97 1.0
e 147 221 1.0
e 147 296 6.0
e 148 234 1.0
e 148 115 1.0
e 148 216 1.0
e 148 85 1.0
e 149 124 3.0
e 149 75 2.0
e 149 145 9.0
e 149 57 1.0
e 150 85 48.0
e 150 199 47.0
e 150 135 2.0
e 150 73 39.0
e 150 72 2.0
e 150 9 24.0
e 150 235 43.0
e 151 192 1.0
e 151 247 1.0
e 151 67 1.0
e 151 202 1.0
e 152 153 1.0
e 152 202 2.0
e 152 45 1.0
e 152 88 3.0
e 153 63 1.0
e 153 197 2.0
e 153 112 1.0
e 153 199 1.0
e 154 302 1.0
e 154 251 1.0
e 154 165 1.0
e 154 29 2.0
e 155 140 1.0
e 155 156 1.0
e 155 130 1.0
e 155 158 1.0
e 156 233 1.0
e 156 101 1.0
e 156 273 1.0
e 156 292 2.0
e 157 138 2.0
e 157 307 2.0
e 157 150 15.0
e 157 295 1.0
e 158 153 2.0
e 158 97 1.0
e 158 239 1.0
e 158 161 3.0
e 159 93 1.0
e 159 299 8.0
e 159 231 1.0
e 159 128 1.0
e 160 265 1.0
e 160 276 1.0
e 160 172 1.0
e 160 4 1.0
e 161 204 1.0
e 161 281 1.0
e 161 146 1.0
e 162 256 1.0
e 162 119 2.0
e 162 51 1.0
e 162 192 1.0
e 163 317 1.0
e 163 122 1.0
e 163 68 2.0
e 163 133 1.0
e 164 232 1.0
e 164 134 1.0
e 164 228 1.0
e 164 35 1.0
e 165 49 1.0
e 165 73 1.0
e 165 140 1.0
e 165 276 1.0
e 166 43 2.0
e 166 297 2.0
e 166 86 1.0
e 166 261 37.0
e 167 285 2.0
e 167 23 1.0
e 167 141 1.0
e 168 245 2.0
e 168 96 2.0
e 168 179 3.0
e 168 32 1.0
e 169 155 1.0
e 169 74 1.0
e 169 283 2.0
e 169 25 1.0
e 170 273 2.0
e 170 118 1.0
e 170 122 1.0
e 170 45 1.0
e 171 90 13.0
e 171 144 18.0
e 171 215 40.0
e 171 236 36.0
e 172 55 1.0
e 172 40 1.0
e 172 280 1.0
e 172 196 1.0
e 173 145 12.0
e 173 189 1.0
e 173 34 1.0
e 173 202 2.0
e 174 24 4.0
e 174 258 1.0
e 174 89 1.0
e 174 77 1.0
e 175 115 1.0
e 175 20 3.0
e 175 26 9.0
e 176 112 1.0
e 176 313 1.0
e 176 252 1.0
e 176 199 1.0
e 177 134 2.0
e 177 299 11.0
e 177 206 1.0
e 177 244 2.0
e 178 262 42.0
e 178 133 23.0
e 178 171 38.0
e 178 52 32.0
e 178 312 23.0
e 178 235 32.0
e 178 18 46.0
e 178 242 42.0
e 179 151 29.0
e 179 93 1.0
e 179 268 40.0
e 179 126 28.0
e 179 274 45.0
e 179 294 18.0
e 179 312 31.0
e 180 101 1.0
e 180 207 22.0
e 180 92 1.0
e 180 104 2.0
e 181 30 2.0
e 181 306 1.0
e 181 145 5.0
e 181 206 1.0
e 182 184 1.0
e 182 290 1.0
e 182 164 1.0
e 182 192 1.0
e 183 121 1.0
e 183 156 1.0
e 183 305 2.0
e 183 165 1.0
e 184 253 1.0
e 184 140 1.0
e 184 219 2.0
e 184 277 2.0
e 185 129 2.0
e 185 269 1.0
e 185 298 1.0
e 185 218 1.0
e 186 171 6.0
e 186 5 13.0
e 186 306 12.0
e 186 8 35.0
e 186 178 34.0
e 187 108 2.0
e 187 127 1.0
e 187 56 1.0
e 187 47 1.0
e 188 232 1.0
e 188 91 2.0
e 188 77 1.0
e 188 296 13.0
e 189 39 1.0
e 189 41 1.0
e 189 151 1.0
e 189 47 2.0
e 190 261 19.0
e 190 206 1.0
e 190 51 1.0
e 190 283 1.0
e 191 98 1.0
e 191 4 1.0
e 191 38 1.0
e 191 239 1.0
e 192 25 1.0
e 192 62 1.0
e 192 255 1.0
e 192 56 1.0
e 193 250 1.0
e 193 12 1.0
e 193 45 1.0
e 194 78 1.0
e 194 216 2.0
e 194 303 1.0
e 194 252 1.0
e 195 221 1.0
e 195 32 1.0
e 195 107 1.0
e 195 233 1.0
e 196 104 1.0
e 196 57 1.0
e 196 84 1.0
e 196 245 2.0
e 197 220 1.0
e 197 195 1.0
e 197 252 1.0
e 197 280 1.0
e 198 127 1.0
e 198 193 1.0
e 198 3 2.0
e 198 177 1.0
e 199 8 21.0
e 199 108 1.0
e 199 138 1.0
e 199 53 1.0
e 200 30 1.0
e 200 265 1.0
e 200 21 1.0
e 200 131 1.0
e 201 247 1.0
e 201 8 25.0
e 201 262 2.0
e 201 216 1.0
e 202 240 3.0
e 202 121 2.0
e 202 138 1.0
e 202 237 18.0
e 203 6 35.0
e 203 55 4.0
e 203 214 45.0
e 203 251 5.0
e 204 104 1.0
e 204 36 19.0
e 204 186 44.0
e 204 109 1.0
e 205 62 1.0
e 205 35 1.0
e 205 30 1.0
e 205 44 2.0
e 206 159 1.0
e 206 86 1.0
e 206 115 1.0
e 206 316 1.0
e 207 67 3.0
e 207 62 18.0
e 207 236 30.0
e 207 146 20.0
e 207 26 26.0
e 208 308 1.0
e 208 241 2.0
e 208 267 1.0
e 208 54 1.0
e 209 101 1.0
e 209 24 17.0
e 209 138 1.0
e 209 180 2.0
e 210 195 1.0
e 210 317 2.0
e 210 316 1.0
e 210 132 3.0
e 211 189 1.0
e 211 148 2.0
e 211 125 2.0
e 211 52 2.0
e 212 225 3.0
e 212 107 1.0
e 212 229 1.0
e 212 246 1.0
e 213 137 1.0
e 213 81 1.0
e 213 41 1.0
e 213 147 1.0
e 214 277 1.0
e 214 216 2.0
e 214 237 11.0
e 214 26 1.0
e 215 314 1.0
e 215 45 1.0
e 215 187 1.0
e 215 231 1.0
e 216 76 1.0
e 216 112 2.0
e 216 279 1.0
e 216 191 1.0
e 217 230 48.0
e 217 79 44.0
e 217 23 1.0
e 217 184 2.0
e 217 235 21.0
e 217 126 31.0
e 217 207 45.0
e 218 307 1.0
e 218 25 1.0
e 218 253 1.0
e 218 54 1.0
e 219 160 1.0
e 219 92 1.0
e 219 273 2.0
e 219 112 1.0
e 220 11 1.0
e 220 165 1.0
e 220 209 1.0
e 220 110 1.0
e 221 146 1.0
e 221 142 1.0
e 221 57 1.0
e 221 247 2.0
e 222 231 1.0
e 222 201 1.0
e 222 62 1.0
e 222 177 1.0
e 223 154 1.0
e 223 147 1.0
e 223 86 1.0
e 223 92 2.0
e 224 277 1.0
e 224 229 2.0
e 224 318 1.0
e 224 268 1.0
e 225 180 2.0
e 225 304 1.0
e 225 47 1.0
e 225 146 1.0
e 226 234 1.0
e 226 197 1.0
e 226 37 1.0
e 226 154 1.0
e 227 143 1.0
e 227 98 1.0
e 227 226 2.0
e 227 172 1.0
e 228 311 1.0
e 228 94 1.0
e 228 63 1.0
e 228 32 1.0
e 229 206 3.0
e 229 144 1.0
e 229 75 1.0
e 229 53 1.0
e 230 62 2.0
e 230 89 1.0
e 230 248 2.0
e 230 105 1.0
e 231 284 1.0
e 231 188 2.0
e 231 102 45.0
e 231 29 1.0
e 232 17 20.0
e 232 9 47.0
e 232 207 46.0
e 232 259 1.0
e 233 298 1.0
e 233 16 1.0
e 233 237 1.0
e 233 182 2.0
e 234 207 12.0
e 234 102 15.0
e 234 304 1.0
e 234 295 1.0
e 235 315 28.0
e 235 258 41.0
e 235 294 16.0
e 236 300 36.0
e 236 226 1.0
e 236 292 40.0
e 236 26 33.0
e 236 275 48.0
e 236 79 18.0
e 236 235 31.0
e 237 277 29.0
e 237 283 49.0
e 237 243 17.0
e 237 80 14.0
e 238 172 22.0
e 238 135 19.0
e 238 228 15.0
e 238 213 11.0
e 238 275 30.0
e 238 301 9.0
e 239 274 15.0
e 239 214 1.0
e 239 36 38.0
e 239 155 1.0
e 240 306 1.0
e 240 317 1.0
e 240 31 3.0
e 240 169 1.0
e 241 183 1.0
e 241 228 1.0
e 241 161 1.0
e 241 17 38.0
e 242 131 3.0
e 242 41 16.0
e 242 186 27.0
e 242 214 9.0
e 243 202 2.0
e 243 225 2.0
e 243 239 1.0
e 243 143 1.0
e 244 86 1.0
e 244 25 1.0
e 244 128 1.0
e 244 121 1.0
e 245 23 1.0
e 245 11 1.0
e 245 34 2.0
e 245 156 2.0
e 246 279 1.0
e 246 259 1.0
e 246 94 1.0
e 246 119 1.0
e 247 242 10.0
e 247 138 3.0
e 247 194 1.0
e 247 58 1.0
e 248 38 1.0
e 248 223 1.0
e 248 185 1.0
e 248 260 1.0
e 249 15 1.0
e 249 174 2.0
e 249 149 2.0
e 249 252 1.0
e 250 284 1.0
e 250 89 1.0
e 250 88 1.0
e 250 3 1.0
e 251 17 10.0
e 251 69 1.0
e 251 248 1.0
e 251 99 1.0
e 252 122 1.0
e 252 128 1.0
e 252 32 1.0
e 252 138 1.0
e 253 246 1.0
e 253 75 1.0
e 253 281 1.0
e 253 189 1.0
e 254 159 1.0
e 254 298 3.0
e 254 25 1.0
e 254 173 2.0
e 255 204 1.0
e 255 160 1.0
e 255 256 1.0
e 255 188 1.0
e 256 62 2.0
e 256 289 2.0
e 256 279 2.0
e 256 53 2.0
e 257 210 1.0
e 257 261 18.0
e 257 24 40.0
e 257 241 1.0
e 258 191 1.0
e 258 257 1.0
e 258 150 17.0
e 258 203 28.0
e 259 78 1.0
e 259 63 1.0
e 259 283 1.0
e 259 121 1.0
e 260 168 1.0
e 260 162 1.0
e 260 33 1.0
e 260 133 1.0
e 261 92 9.0
e 261 90 32.0
e 261 231 37.0
e 261 1 8.0
e 262 28 1.0
e 262 180 1.0
e 262 281 1.0
e 262 229 1.0
e 263 127 1.0
e 263 52 1.0
e 263 121 1.0
e 263 213 2.0
e 264 26 38.0
e 264 210 1.0
e 264 144 1.0
e 264 192 1.0
e 265 256 1.0
e 265 14 2.0
e 265 146 1.0
e 265 253 1.0
e 266 151 3.0
e 266 117 9.0
e 266 14 22.0
e 266 299 15.0
e 267 58 1.0
e 267 45 1.0
e 267 11 1.0
e 267 153 2.0
e 268 245 1.0
e 268 27 1.0
e 268 28 2.0
e 268 182 1.0
e 269 70 2.0
e 269 132 1.0
e 269 91 1.0
e 269 176 2.0
e 270 31 2.0
e 270 136 3.0
e 270 30 1.0
e 270 69 1.0
e 271 102 40.0
e 271 262 2.0
e 271 231 1.0
e 271 156 2.0
e 272 212 2.0
e 272 120 1.0
e 272 14 1.0
e 272 25 2.0
e 273 228 1.0
e 273 303 1.0
e 273 89 1.0
e 273 24 11.0
e 274 100 4.0
e 274 131 10.0
e 274 32 13.0
e 274 219 36.0
e 275 216 48.0
e 275 282 38.0
e 275 94 12.0
e 275 52 38.0
e 276 296 34.0
e 276 242 13.0
e 276 310 1.0
e 276 288 1.0
e 277 318 1.0
e 277 197 1.0
e 277 94 2.0
e 277 306 2.0
e 278 35 2.0
e 278 186 8.0
e 278 137 2.0
e 278 66 1.0
e 279 149 1.0
e 279 290 1.0
e 279 28 2.0
e 279 209 1.0
e 280 105 1.0
e 280 75 1.0
e 280 154 1.0
e 280 271 1.0
e 281 296 30.0
e 281 145 44.0
e 281 38 1.0
e 281 122 1.0
e 282 160 1.0
e 282 18 21.0
e 282 261 23.0
e 282 37 1.0
e 283 139 3.0
e 283 280 1.0
e 283 98 2.0
e 283 234 2.0
e 284 43 1.0
e 284 147 1.0
e 284 234 1.0
e 284 71 1.0
e 285 221 1.0
e 285 166 1.0
e 285 55 1.0
e 285 107 1.0
e 286 98 1.0
e 286 311 2.0
e 286 220 1.0
e 287 44 1.0
e 287 173 1.0
e 287 272 2.0
e 287 241 1.0
e 288 229 1.0
e 288 123 1.0
e 288 189 1.0
e 288 125 1.0
e 289 281 1.0
e 289 16 1.0
e 289 148 1.0
e 289 10 3.0
e 290 232 1.0
e 290 312 4.0
e 290 266 45.0
e 290 231 1.0
e 291 118 1.0
e 291 300 1.0
e 291 129 3.0
e 291 140 1.0
e 292 185 1.0
e 292 32 1.0
e 292 62 2.0
e 292 288 1.0
e 293 285 1.0
e 293 93 1.0
e 293 22 1.0
e 293 165 1.0
e 294 305 42.0
e 294 17 21.0
e 294 121 37.0
e 294 42 45.0
e 295 152 1.0
e 295 179 36.0
e 295 72 12.0
e 295 0 16.0
e 296 85 42.0
e 296 260 24.0
e 296 13 32.0
e 296 307 40.0
e 297 277 1.0
e 297 283 2.0
e 297 292 2.0
e 297 306 1.0
e 298 308 1.0
e 298 96 1.0
e 298 7 22.0
e 298 141 3.0
e 299 211 5.0
e 299 161 33.0
e 299 143 28.0
e 299 55 45.0
e 300 97 1.0
e 300 68 1.0
e 300 8 34.0
e 300 274 40.0
e 301 151 6.0
e 301 32 25.0
e 301 33 39.0
e 301 61 49.0
e 301 236 5.0
e 302 206 2.0
e 302 160 3.0
e 302 209 2.0
e 302 16 2.0
e 303 59 1.0
e 303 225 1.0
e 303 16 1.0
e 303 181 1.0
e 304 318 2.0
e 304 105 1.0
e 304 193 1.0
e 304 111 3.0
e 305 139 2.0
e 305 69 1.0
e 305 82 1.0
e 305 152 2.0
e 306 265 1.0
e 306 67 1.0
e 306 147 1.0
e 306 275 44.0
e 307 56 1.0
e 307 8 24.0
e 307 25 1.0
e 307 148 1.0
e 308 195 1.0
e 308 234 1.0
e 308 119 2.0
e 308 42 1.0
e 309 193 2.0
e 309 226 1.0
e 309 283 1.0
e 309 183 1.0
e 310 16 1.0
e 310 257 1.0
e 310 90 1.0
e 310 223 1.0
e 311 261 16.0
e 311 234 1.0
e 311 51 1.0
e 311 141 2.0
e 312 174 21.0
e 312 205 19.0
e 312 105 6.0
e 312 267 36.0
e 313 283 1.0
e 313 54 1.0
e 313 257 1.0
e 313 157 1.0
e 314 274 13.0
e 314 43 48.0
e 314 267 46.0
e 314 302 42.0
e 314 103 14.0
e 315 188 1.0
e 315 17 21.0
e 315 105 1.0
e 315 98 1.0
e 316 100 2.0
e 316 255 1.0
e 316 139 1.0
e 316 270 1.0
e 317 102 46.0
e 317 164 2.0
e 317 123 2.0
e 317 67 1.0
e 318 33 1.0
e 318 40 1.0
e 318 142 1.0
e 319 161 2.0
e 319 301 49.0
e 319 279 2.0
e 319 28 1.0
